NAME: n300q35I.tsp, 300 nodes, semilla 888
COMMENT: Problema aleatorio de norma euclidea
DIMENSION: 300
CAPACITY: 35
EDGE_WEIGHT_TYPE: EUC_2D
NODE_COORD_SECTION
1   0.0000   0.0000
2 317.0000 439.0000
3 424.0000 411.0000
4 -174.0000 426.0000
5  38.0000 211.0000
6 117.0000 -53.0000
7 179.0000  85.0000
8 -145.0000 -67.0000
9 -314.0000 342.0000
10 385.0000 487.0000
11 -128.0000 -456.0000
12 -95.0000 133.0000
13 449.0000 -253.0000
14 389.0000 271.0000
15 -379.0000 468.0000
16  13.0000 -151.0000
17 223.0000 -422.0000
18 356.0000 -437.0000
19 309.0000  78.0000
20 103.0000 -391.0000
21 -20.0000 -109.0000
22  98.0000 485.0000
23 405.0000 -153.0000
24  15.0000 443.0000
25 288.0000 472.0000
26 -248.0000 -146.0000
27 184.0000  58.0000
28 479.0000 217.0000
29 312.0000 -160.0000
30  -4.0000 -431.0000
31 -348.0000 -214.0000
32 -121.0000 -311.0000
33 131.0000 342.0000
34 -258.0000 -362.0000
35  43.0000 265.0000
36 -119.0000 500.0000
37 -371.0000 343.0000
38 388.0000 296.0000
39  10.0000 442.0000
40 -307.0000 352.0000
41 -297.0000 -16.0000
42 398.0000 -313.0000
43  85.0000 -304.0000
44 -187.0000 494.0000
45 413.0000  22.0000
46 139.0000 -57.0000
47 -14.0000  45.0000
48 250.0000  91.0000
49 382.0000  84.0000
50 -437.0000 288.0000
51 -198.0000 436.0000
52 -234.0000 371.0000
53 -160.0000 -295.0000
54 162.0000 -228.0000
55 -269.0000  71.0000
56 144.0000 -286.0000
57 442.0000 462.0000
58  11.0000 -356.0000
59 -472.0000 281.0000
60 307.0000 458.0000
61 344.0000 -252.0000
62 -485.0000 -261.0000
63 287.0000 -43.0000
64 -137.0000 184.0000
65 -158.0000 -443.0000
66 410.0000 201.0000
67 -382.0000 -458.0000
68 -49.0000 -58.0000
69 477.0000 446.0000
70 -434.0000 441.0000
71 231.0000 117.0000
72 -183.0000  34.0000
73 329.0000 -404.0000
74 -217.0000 -253.0000
75 -72.0000 -338.0000
76 481.0000 -410.0000
77   9.0000 -421.0000
78  20.0000 131.0000
79 -84.0000 419.0000
80  38.0000 -154.0000
81 -242.0000 152.0000
82  76.0000 201.0000
83 -244.0000 -441.0000
84  51.0000 -314.0000
85  20.0000 -479.0000
86 -450.0000 -105.0000
87  30.0000 -172.0000
88 -24.0000 265.0000
89 -268.0000  15.0000
90 178.0000 -450.0000
91 -138.0000 -57.0000
92 -489.0000 -182.0000
93 -72.0000 -213.0000
94 -179.0000 129.0000
95 -72.0000 190.0000
96 -481.0000 175.0000
97 387.0000 206.0000
98 -375.0000 -128.0000
99 -129.0000 -279.0000
100 268.0000 -247.0000
101 190.0000 -16.0000
102 -269.0000 -210.0000
103 185.0000 174.0000
104   5.0000 -122.0000
105 -437.0000 458.0000
106 -372.0000 -261.0000
107 -400.0000  18.0000
108 388.0000 -481.0000
109  94.0000 -253.0000
110 -176.0000 -428.0000
111 -229.0000 -249.0000
112 -134.0000 410.0000
113  63.0000 159.0000
114 393.0000 470.0000
115 -149.0000 -415.0000
116 -312.0000 -488.0000
117 322.0000 -469.0000
118 -235.0000 -82.0000
119 -161.0000 145.0000
120 407.0000 -280.0000
121 -185.0000 -165.0000
122 -468.0000  68.0000
123 344.0000 -190.0000
124 -471.0000  51.0000
125 115.0000 244.0000
126 -101.0000 -333.0000
127 -410.0000 -162.0000
128 -474.0000 -154.0000
129 -332.0000 -374.0000
130 380.0000  11.0000
131 -23.0000 202.0000
132 -16.0000 -452.0000
133 -471.0000 267.0000
134  44.0000 -400.0000
135 368.0000 -475.0000
136 344.0000 161.0000
137 256.0000 -302.0000
138 331.0000 120.0000
139 222.0000 261.0000
140 398.0000  -9.0000
141 -395.0000 -299.0000
142 423.0000 152.0000
143  -8.0000 282.0000
144  68.0000 157.0000
145 -374.0000 328.0000
146 162.0000 -120.0000
147 -312.0000 105.0000
148 484.0000 -341.0000
149 465.0000 472.0000
150 -305.0000  58.0000
151  77.0000 355.0000
152 -210.0000 -216.0000
153 -268.0000 240.0000
154 -335.0000  79.0000
155 -480.0000 -428.0000
156 -349.0000 -404.0000
157 -202.0000 -49.0000
158 -188.0000 -102.0000
159 441.0000 100.0000
160 412.0000 -234.0000
161 -328.0000 -72.0000
162 -254.0000  59.0000
163 -112.0000 -303.0000
164 100.0000 327.0000
165 100.0000 -471.0000
166 352.0000 277.0000
167 -339.0000 466.0000
168 -390.0000  85.0000
169 -363.0000 -171.0000
170 446.0000 193.0000
171 224.0000 -34.0000
172  -8.0000 337.0000
173 397.0000 234.0000
174 146.0000 -159.0000
175 401.0000 403.0000
176 -402.0000  81.0000
177 -378.0000 499.0000
178 413.0000 -403.0000
179 178.0000 -440.0000
180 400.0000 -218.0000
181 -286.0000 -233.0000
182 -387.0000 146.0000
183 280.0000 180.0000
184 -213.0000 311.0000
185 -94.0000 -64.0000
186 321.0000  78.0000
187 -218.0000 228.0000
188 -451.0000 437.0000
189 491.0000 -339.0000
190 313.0000 -251.0000
191 -39.0000 -208.0000
192 -446.0000 422.0000
193 300.0000 448.0000
194 411.0000 375.0000
195 -219.0000 -394.0000
196 -465.0000 -294.0000
197 129.0000 -151.0000
198 -417.0000 -153.0000
199  22.0000 -90.0000
200 427.0000 160.0000
201 -444.0000 209.0000
202 -324.0000 -354.0000
203 496.0000 -139.0000
204 265.0000  34.0000
205 175.0000 -480.0000
206 -368.0000 -242.0000
207 208.0000 -109.0000
208 -440.0000  93.0000
209 -389.0000 -104.0000
210  28.0000 -361.0000
211 385.0000 236.0000
212 -222.0000 458.0000
213 251.0000 -80.0000
214 -131.0000 398.0000
215 136.0000 258.0000
216 -15.0000 -457.0000
217 377.0000 -294.0000
218 -371.0000 -55.0000
219 -96.0000 -70.0000
220 -491.0000  15.0000
221 -375.0000 -28.0000
222 232.0000 -468.0000
223  87.0000 115.0000
224 247.0000 -386.0000
225 -463.0000  67.0000
226 -16.0000 -297.0000
227 -393.0000 410.0000
228 -479.0000 -82.0000
229 -472.0000 -309.0000
230 -183.0000 181.0000
231 -435.0000 -80.0000
232 268.0000 -412.0000
233 244.0000 120.0000
234 -195.0000 319.0000
235 469.0000 290.0000
236 465.0000 180.0000
237 -207.0000 121.0000
238 -327.0000 -129.0000
239   5.0000 136.0000
240 -96.0000 -47.0000
241  73.0000 128.0000
242 -194.0000 -58.0000
243 -243.0000 343.0000
244  44.0000 -122.0000
245 414.0000 -413.0000
246 -263.0000 -122.0000
247 -50.0000 312.0000
248 277.0000 336.0000
249 -198.0000 -210.0000
250 -436.0000 -56.0000
251 -184.0000 -250.0000
252 -27.0000 313.0000
253 -56.0000 406.0000
254 -445.0000 407.0000
255 298.0000 -349.0000
256 403.0000 -474.0000
257  56.0000 351.0000
258 -81.0000  99.0000
259 -226.0000 -492.0000
260 211.0000 114.0000
261 -249.0000 136.0000
262 -18.0000 304.0000
263 -446.0000 409.0000
264 292.0000 -119.0000
265 -219.0000 -310.0000
266 -231.0000 365.0000
267 264.0000 446.0000
268 -312.0000 -50.0000
269 421.0000 212.0000
270 445.0000  69.0000
271 230.0000 148.0000
272 -264.0000 269.0000
273 -432.0000 418.0000
274 -141.0000 -480.0000
275 -409.0000 168.0000
276 -227.0000 -150.0000
277 -382.0000  41.0000
278 337.0000 -197.0000
279 -127.0000 -325.0000
280 248.0000 -72.0000
281 220.0000 -28.0000
282 486.0000 188.0000
283  61.0000 -463.0000
284 460.0000 -461.0000
285 112.0000 -438.0000
286 -119.0000 -81.0000
287  -6.0000 370.0000
288 -218.0000 263.0000
289  72.0000 182.0000
290  58.0000  76.0000
291 -462.0000 380.0000
292 -396.0000 -242.0000
293 176.0000 -122.0000
294 159.0000 -377.0000
295 331.0000 -329.0000
296 203.0000 -299.0000
297 -65.0000 -339.0000
298 353.0000 -378.0000
299 -153.0000 207.0000
300 183.0000 -24.0000
DISPLAY_DATA_SECTION:
 1  250  250
 2  408  469
 3  462  455
 4  163  463
 5  269  355
 6  308  223
 7  339  292
 8  177  216
 9   93  421
10  442  493
11  186   22
12  202  316
13  474  123
14  444  385
15   60  484
16  256  174
17  361   39
18  428   31
19  404  289
20  301   54
21  240  195
22  299  492
23  452  173
24  257  471
25  394  486
26  126  177
27  342  279
28  489  358
29  406  170
30  248   34
31   76  143
32  189   94
33  315  421
34  121   69
35  271  382
36  190  500
37   64  421
38  444  398
39  255  471
40   96  426
41  101  242
42  449   93
43  292   98
44  156  497
45  456  261
46  319  221
47  243  272
48  375  295
49  441  292
50   31  394
51  151  468
52  133  435
53  170  102
54  331  136
55  115  285
56  322  107
57  471  481
58  255   72
59   14  390
60  403  479
61  422  124
62    7  119
63  393  228
64  181  342
65  171   28
66  455  350
67   59   21
68  225  221
69  488  473
70   33  470
71  365  308
72  158  267
73  414   48
74  141  123
75  214   81
76  490   45
77  254   39
78  260  315
79  208  459
80  269  173
81  129  326
82  288  350
83  128   29
84  275   93
85  260   10
86   25  197
87  265  164
88  238  382
89  116  257
90  339   25
91  181  221
92    5  159
93  214  143
94  160  314
95  214  345
96    9  337
97  443  353
98   62  186
99  185  110
100  384  126
101  345  242
102  115  145
103  342  337
104  252  189
105   31  479
106   64  119
107   50  259
108  444    9
109  297  123
110  162   36
111  135  125
112  183  455
113  281  329
114  446  485
115  175   42
116   94    6
117  411   15
118  132  209
119  169  322
120  453  110
121  157  167
122   16  284
123  422  155
124   14  275
125  307  372
126  199   83
127   45  169
128   13  173
129   84   63
130  440  255
131  238  351
132  242   24
133   14  383
134  272   50
135  434   12
136  422  330
137  378   99
138  415  310
139  361  380
140  449  245
141   52  100
142  461  326
143  246  391
144  284  328
145   63  414
146  331  190
147   94  302
148  492   79
149  482  486
150   97  279
151  288  427
152  145  142
153  116  370
154   82  289
155   10   36
156   75   48
157  149  225
158  156  199
159  470  300
160  456  133
161   86  214
162  123  279
163  194   98
164  300  413
165  300   14
166  426  388
167   80  483
168   55  292
169   68  164
170  473  346
171  362  233
172  246  418
173  448  367
174  323  170
175  450  451
176   49  290
177   61  499
178  456   48
179  339   30
180  450  141
181  107  133
182   56  323
183  390  340
184  143  405
185  203  218
186  410  289
187  141  364
188   24  468
189  495   80
190  406  124
191  230  146
192   27  461
193  400  474
194  455  437
195  140   53
196   17  103
197  314  174
198   41  173
199  261  205
200  463  330
201   28  354
202   88   73
203  498  180
204  382  267
205  337   10
206   66  129
207  354  195
208   30  296
209   55  198
210  264   69
211  442  368
212  139  479
213  375  210
214  184  449
215  318  379
216  242   21
217  438  103
218   64  222
219  202  215
220    4  257
221   62  236
222  366   16
223  293  307
224  373   57
225   18  283
226  242  101
227   53  455
228   10  209
229   14   95
230  158  340
231   32  210
232  384   44
233  372  310
234  152  409
235  484  395
236  482  340
237  146  310
238   86  185
239  252  318
240  202  226
241  286  314
242  153  221
243  128  421
244  272  189
245  457   43
246  118  189
247  225  406
248  388  418
249  151  145
250   32  222
251  158  125
252  236  406
253  222  453
254   27  453
255  399   75
256  451   13
257  278  425
258  209  299
259  137    4
260  355  307
261  125  318
262  241  402
263   27  454
264  396  190
265  140   95
266  134  432
267  382  473
268   94  225
269  460  356
270  472  284
271  365  324
272  118  384
273   34  459
274  179   10
275   45  334
276  136  175
277   59  270
278  418  151
279  186   87
280  374  214
281  360  236
282  493  344
283  280   18
284  480   19
285  306   31
286  190  209
287  247  435
288  141  381
289  286  341
290  279  288
291   19  440
292   52  129
293  338  189
294  329   61
295  415   85
296  351  100
297  217   80
298  426   61
299  173  353
300  341  238
DEMAND_SECTION
1 -6
2 0
3 3
4 -9
5 -10
6 2
7 -5
8 3
9 -1
10 0
11 2
12 8
13 -2
14 5
15 0
16 -10
17 -4
18 5
19 9
20 10
21 -6
22 6
23 -1
24 4
25 7
26 9
27 -2
28 -3
29 5
30 3
31 0
32 -1
33 2
34 9
35 7
36 -5
37 0
38 5
39 -10
40 8
41 -5
42 0
43 -5
44 8
45 4
46 1
47 -5
48 6
49 0
50 5
51 1
52 8
53 -8
54 6
55 1
56 -5
57 0
58 -4
59 -4
60 -3
61 0
62 -2
63 6
64 7
65 -5
66 6
67 2
68 9
69 7
70 9
71 -10
72 0
73 0
74 5
75 -6
76 6
77 -10
78 -10
79 -3
80 -5
81 -2
82 4
83 -5
84 -3
85 6
86 -7
87 7
88 -4
89 0
90 1
91 6
92 -3
93 -4
94 4
95 -7
96 8
97 5
98 6
99 -5
100 4
101 3
102 -5
103 -2
104 -2
105 2
106 -8
107 2
108 2
109 5
110 0
111 -6
112 1
113 5
114 -9
115 -10
116 -10
117 4
118 -10
119 2
120 5
121 -7
122 0
123 -2
124 -4
125 3
126 5
127 -1
128 -8
129 -3
130 -3
131 8
132 6
133 0
134 8
135 5
136 -1
137 4
138 -10
139 0
140 -9
141 1
142 -5
143 5
144 -2
145 -9
146 -3
147 8
148 -6
149 1
150 -5
151 7
152 -10
153 -7
154 -7
155 -8
156 6
157 3
158 -6
159 -6
160 -1
161 4
162 9
163 -7
164 5
165 -7
166 8
167 9
168 -5
169 4
170 1
171 4
172 10
173 8
174 0
175 -4
176 2
177 -4
178 -4
179 6
180 4
181 5
182 -4
183 -7
184 6
185 5
186 0
187 4
188 -6
189 0
190 3
191 2
192 4
193 4
194 -10
195 -1
196 8
197 -4
198 9
199 -9
200 -10
201 -6
202 -6
203 -3
204 3
205 -1
206 -1
207 -10
208 -4
209 -9
210 6
211 9
212 4
213 8
214 4
215 5
216 -4
217 -4
218 -3
219 5
220 5
221 5
222 1
223 -9
224 -6
225 0
226 -4
227 0
228 8
229 9
230 3
231 -8
232 0
233 -7
234 -2
235 7
236 7
237 -8
238 -1
239 -2
240 -2
241 0
242 6
243 0
244 -8
245 1
246 -4
247 2
248 1
249 -7
250 -3
251 -6
252 8
253 8
254 -9
255 2
256 -2
257 -4
258 7
259 6
260 -8
261 -10
262 6
263 7
264 9
265 6
266 3
267 5
268 -4
269 -8
270 -5
271 -7
272 5
273 -4
274 0
275 -2
276 3
277 -3
278 -9
279 -1
280 6
281 -8
282 7
283 0
284 9
285 8
286 -10
287 -5
288 3
289 2
290 7
291 -9
292 -2
293 -9
294 7
295 -10
296 -2
297 2
298 3
299 9
300 9
EOF